certificates/rado_a11_c174_N22.drat
-20 -22 0
d -20 -16 -22 0
16 -21 -22 0
17 19 -16 0
-21 -22 0
d 16 -21 -22 0
-16 9 -17 0
-17 -22 0
16 -22 0
-22 0
-16 -4 0
17 0
-4 0
16 0
-14 0
-18 0
-19 0
-15 0
-3 0
9 0
-7 0
-11 0
2 0
6 0
10 0
13 0
12 0
5 0
20 0
-8 0
0
